;; produced by z3_gnatprove.drv ;;
(set-info :smt-lib-version 2.5)
(set-info :source |VC generated by SPARK 2014|)
(set-info :category industrial)
(set-info :status unknown)
;;; generated by SMT-LIB2 driver
;;; SMT-LIB2 driver: bit-vectors, common part
;;; SMT-LIB2: integer arithmetic
(declare-sort string 0)

(declare-datatypes () ((tuple0 (Tuple0))))
(declare-sort us_private 0)

(declare-fun private__bool_eq (us_private us_private) Bool)

(declare-const us_null_ext__ us_private)

(declare-sort us_type_of_heap 0)

(declare-datatypes ()
((us_type_of_heap__ref
 (us_type_of_heap__refqtmk (us_type_of_heap__content us_type_of_heap)))))
(declare-sort us_image 0)

(declare-datatypes () ((int__ref (int__refqtmk (int__content Int)))))
(declare-datatypes () ((bool__ref (bool__refqtmk (bool__content Bool)))))
(declare-datatypes ()
((us_fixed__ref (us_fixed__refqtmk (us_fixed__content Int)))))
(declare-datatypes () ((real__ref (real__refqtmk (real__content Real)))))
(declare-datatypes ()
((us_private__ref (us_private__refqtmk (us_private__content us_private)))))
(define-fun int__ref___projection ((a int__ref)) Int (int__content a))

(define-fun us_fixed__ref___projection ((a us_fixed__ref)) Int (us_fixed__content
                                                               a))

(define-fun bool__ref___projection ((a bool__ref)) Bool (bool__content a))

(define-fun real__ref___projection ((a real__ref)) Real (real__content a))

(define-fun us_private__ref___projection ((a us_private__ref)) us_private 
  (us_private__content a))

(define-fun in_range ((x Int)) Bool (or (= x 0) (= x 1)))

(declare-fun attr__ATTRIBUTE_IMAGE (Bool) us_image)

(declare-fun attr__ATTRIBUTE_VALUE__pre_check (us_image) Bool)

(declare-fun attr__ATTRIBUTE_VALUE (us_image) Bool)

(declare-sort integer 0)

(declare-fun integerqtint (integer) Int)

;; integer'axiom
  (assert
  (forall ((i integer))
  (and (<= (- 2147483648) (integerqtint i)) (<= (integerqtint i) 2147483647))))

(define-fun in_range1 ((x Int)) Bool (and (<= (- 2147483648) x)
                                     (<= x 2147483647)))

(declare-fun attr__ATTRIBUTE_IMAGE1 (Int) us_image)

(declare-fun attr__ATTRIBUTE_VALUE__pre_check1 (us_image) Bool)

(declare-fun attr__ATTRIBUTE_VALUE1 (us_image) Int)

(declare-fun user_eq (integer integer) Bool)

(declare-const dummy integer)

(declare-datatypes ()
((integer__ref (integer__refqtmk (integer__content integer)))))
(define-fun integer__ref_integer__content__projection ((a integer__ref)) integer 
  (integer__content a))

(declare-const attr__ATTRIBUTE_ADDRESS Int)

(define-fun to_rep ((x integer)) Int (integerqtint x))

(declare-fun of_rep (Int) integer)

;; inversion_axiom
  (assert
  (forall ((x integer)) (! (= (of_rep (to_rep x)) x) :pattern ((to_rep x)) )))

;; range_axiom
  (assert
  (forall ((x integer)) (! (in_range1 (to_rep x)) :pattern ((to_rep x)) )))

;; coerce_axiom
  (assert
  (forall ((x Int))
  (! (=> (in_range1 x) (= (to_rep (of_rep x)) x)) :pattern ((to_rep
                                                            (of_rep x))) )))

(declare-datatypes ()
((us_split_fields
 (us_split_fieldsqtmk
 (rec__pack__p5__r__x integer)(rec__pack__p5__r__y integer)(rec__pack__p5__r__z integer)))))
(define-fun us_split_fields_rec__pack__p5__r__x__projection ((a us_split_fields)) integer 
  (rec__pack__p5__r__x a))

(define-fun us_split_fields_rec__pack__p5__r__y__projection ((a us_split_fields)) integer 
  (rec__pack__p5__r__y a))

(define-fun us_split_fields_rec__pack__p5__r__z__projection ((a us_split_fields)) integer 
  (rec__pack__p5__r__z a))

(declare-datatypes ()
((us_split_fields__ref
 (us_split_fields__refqtmk (us_split_fields__content us_split_fields)))))
(define-fun us_split_fields__ref___split_fields__content__projection ((a us_split_fields__ref)) us_split_fields 
  (us_split_fields__content a))

(declare-datatypes ()
((us_rep (us_repqtmk (us_split_fields1 us_split_fields)))))
(define-fun us_rep___split_fields__projection ((a us_rep)) us_split_fields 
  (us_split_fields1 a))

(define-fun bool_eq ((a us_rep)
  (b us_rep)) Bool (ite (and
                        (and
                        (= (to_rep
                           (rec__pack__p5__r__x (us_split_fields1 a))) 
                        (to_rep (rec__pack__p5__r__x (us_split_fields1 b))))
                        (= (to_rep
                           (rec__pack__p5__r__y (us_split_fields1 a))) 
                        (to_rep (rec__pack__p5__r__y (us_split_fields1 b)))))
                        (= (to_rep
                           (rec__pack__p5__r__z (us_split_fields1 a))) 
                        (to_rep (rec__pack__p5__r__z (us_split_fields1 b)))))
                   true false))

(declare-const value__size Int)

(declare-const object__size Int)

(declare-const alignment Int)

;; value__size_axiom
  (assert (<= 0 value__size))

;; object__size_axiom
  (assert (<= 0 object__size))

;; alignment_axiom
  (assert (<= 0 alignment))

(declare-const pack__p5__r__x__first__bit Int)

(declare-const pack__p5__r__x__last__bit Int)

(declare-const pack__p5__r__x__position Int)

;; pack__p5__r__x__first__bit_axiom
  (assert (<= 0 pack__p5__r__x__first__bit))

;; pack__p5__r__x__last__bit_axiom
  (assert (< pack__p5__r__x__first__bit pack__p5__r__x__last__bit))

;; pack__p5__r__x__position_axiom
  (assert (<= 0 pack__p5__r__x__position))

(declare-const pack__p5__r__y__first__bit Int)

(declare-const pack__p5__r__y__last__bit Int)

(declare-const pack__p5__r__y__position Int)

;; pack__p5__r__y__first__bit_axiom
  (assert (<= 0 pack__p5__r__y__first__bit))

;; pack__p5__r__y__last__bit_axiom
  (assert (< pack__p5__r__y__first__bit pack__p5__r__y__last__bit))

;; pack__p5__r__y__position_axiom
  (assert (<= 0 pack__p5__r__y__position))

(declare-const pack__p5__r__z__first__bit Int)

(declare-const pack__p5__r__z__last__bit Int)

(declare-const pack__p5__r__z__position Int)

;; pack__p5__r__z__first__bit_axiom
  (assert (<= 0 pack__p5__r__z__first__bit))

;; pack__p5__r__z__last__bit_axiom
  (assert (< pack__p5__r__z__first__bit pack__p5__r__z__last__bit))

;; pack__p5__r__z__position_axiom
  (assert (<= 0 pack__p5__r__z__position))

(declare-fun user_eq1 (us_rep us_rep) Bool)

(declare-const dummy1 us_rep)

(declare-datatypes () ((r__ref (r__refqtmk (r__content us_rep)))))
(define-fun r__ref_r__content__projection ((a r__ref)) us_rep (r__content a))

(declare-const attr__ATTRIBUTE_ADDRESS1 Int)

(define-fun dynamic_invariant ((temp___expr_18 Int) (temp___is_init_14 Bool)
  (temp___skip_constant_15 Bool) (temp___do_toplevel_16 Bool)
  (temp___do_typ_inv_17 Bool)) Bool (=>
                                    (or (= temp___is_init_14 true)
                                    (<= (- 2147483648) 2147483647))
                                    (in_range1 temp___expr_18)))

(declare-const x Bool)

(declare-const rr__split_fields us_split_fields)

;; Assume
  (assert true)

;; Assume
  (assert true)

(assert
;; defqtvc
 ;; File "pack.ads", line 10, characters 0-0
  (not (= x true)))
(check-sat)
